NAME : X_38_seed_123_id_6
TYPE : CVRP
DIMENSION : 275
EDGE_WEIGHT_TYPE : EUC_2D
CAPACITY : 10
NODE_COORD_SECTION
1	698	449
2	637	690
3	667	32
4	216	564
5	608	686
6	578	29
7	132	569
8	207	547
9	676	10
10	243	453
11	575	878
12	632	693
13	274	629
14	262	536
15	652	40
16	552	767
17	162	632
18	599	684
19	153	506
20	756	66
21	565	629
22	223	537
23	242	548
24	605	675
25	627	706
26	185	581
27	187	640
28	640	665
29	728	1
30	853	99
31	119	634
32	522	537
33	234	589
34	716	19
35	591	27
36	225	552
37	567	734
38	278	590
39	827	146
40	706	642
41	789	50
42	678	4
43	609	688
44	638	579
45	664	24
46	795	595
47	718	734
48	631	686
49	670	19
50	639	703
51	279	690
52	634	60
53	213	570
54	169	570
55	223	597
56	223	543
57	469	651
58	689	660
59	183	621
60	704	554
61	626	173
62	186	546
63	402	556
64	707	640
65	695	704
66	563	137
67	706	23
68	518	724
69	305	546
70	681	40
71	176	543
72	741	17
73	285	433
74	221	562
75	727	17
76	701	681
77	335	680
78	269	565
79	195	568
80	735	152
81	690	695
82	195	520
83	258	558
84	635	688
85	220	497
86	194	572
87	507	682
88	665	40
89	659	91
90	630	668
91	555	703
92	754	192
93	681	14
94	177	552
95	665	100
96	719	17
97	617	75
98	677	97
99	190	501
100	752	677
101	219	531
102	668	32
103	593	15
104	684	728
105	702	794
106	563	648
107	260	639
108	146	545
109	635	711
110	639	681
111	630	46
112	479	774
113	484	784
114	238	610
115	602	706
116	557	655
117	698	139
118	734	16
119	587	69
120	687	714
121	237	548
122	656	650
123	723	743
124	225	566
125	647	22
126	871	562
127	626	14
128	621	702
129	634	699
130	246	573
131	141	616
132	677	22
133	86	566
134	193	574
135	120	517
136	609	694
137	662	597
138	573	762
139	237	537
140	705	101
141	630	684
142	713	810
143	803	58
144	662	666
145	155	416
146	516	7
147	379	716
148	678	5
149	645	14
150	541	796
151	230	495
152	629	663
153	201	493
154	228	464
155	810	17
156	650	678
157	300	599
158	400	616
159	119	548
160	227	552
161	589	692
162	631	487
163	779	697
164	102	598
165	623	768
166	112	440
167	717	872
168	140	521
169	264	520
170	232	473
171	94	482
172	647	49
173	570	112
174	200	601
175	647	19
176	614	721
177	135	602
178	604	753
179	694	9
180	735	24
181	685	659
182	698	677
183	758	644
184	249	517
185	257	690
186	261	579
187	719	758
188	148	536
189	254	505
190	719	28
191	675	695
192	253	586
193	216	568
194	674	22
195	640	736
196	623	703
197	64	487
198	634	594
199	546	106
200	247	430
201	265	553
202	650	808
203	704	32
204	260	476
205	724	43
206	589	665
207	569	699
208	648	73
209	672	63
210	653	674
211	683	42
212	233	575
213	159	695
214	665	708
215	660	767
216	157	693
217	638	683
218	897	77
219	622	684
220	214	579
221	686	671
222	314	530
223	394	640
224	636	690
225	344	576
226	564	640
227	684	5
228	188	533
229	159	558
230	620	644
231	619	66
232	775	62
233	175	521
234	602	822
235	629	698
236	633	765
237	226	637
238	673	687
239	692	183
240	705	640
241	218	601
242	636	659
243	264	623
244	618	95
245	610	719
246	187	560
247	222	576
248	633	0
249	515	745
250	636	71
251	621	605
252	304	539
253	93	632
254	617	718
255	213	540
256	313	519
257	661	12
258	202	528
259	752	40
260	573	568
261	320	645
262	236	555
263	564	621
264	269	627
265	654	583
266	192	609
267	627	32
268	157	533
269	697	727
270	232	611
271	741	88
272	563	161
273	134	608
274	180	608
275	676	643
DEMAND_SECTION
1	0
2	1
3	1
4	1
5	1
6	1
7	1
8	1
9	1
10	1
11	1
12	1
13	1
14	1
15	1
16	1
17	1
18	1
19	1
20	1
21	1
22	1
23	1
24	1
25	1
26	1
27	1
28	1
29	1
30	1
31	1
32	1
33	1
34	1
35	1
36	1
37	1
38	1
39	1
40	1
41	1
42	1
43	1
44	1
45	1
46	1
47	1
48	1
49	1
50	1
51	1
52	1
53	1
54	1
55	1
56	1
57	1
58	1
59	1
60	1
61	1
62	1
63	1
64	1
65	1
66	1
67	1
68	1
69	1
70	1
71	1
72	1
73	1
74	1
75	1
76	1
77	1
78	1
79	1
80	1
81	1
82	1
83	1
84	1
85	1
86	1
87	1
88	1
89	1
90	1
91	1
92	1
93	1
94	1
95	1
96	1
97	1
98	1
99	1
100	1
101	1
102	1
103	1
104	1
105	1
106	1
107	1
108	1
109	1
110	1
111	1
112	1
113	1
114	1
115	1
116	1
117	1
118	1
119	1
120	1
121	1
122	1
123	1
124	1
125	1
126	1
127	1
128	1
129	1
130	1
131	1
132	1
133	1
134	1
135	1
136	1
137	1
138	1
139	1
140	1
141	1
142	1
143	1
144	1
145	1
146	1
147	1
148	1
149	1
150	1
151	1
152	1
153	1
154	1
155	1
156	1
157	1
158	1
159	1
160	1
161	1
162	1
163	1
164	1
165	1
166	1
167	1
168	1
169	1
170	1
171	1
172	1
173	1
174	1
175	1
176	1
177	1
178	1
179	1
180	1
181	1
182	1
183	1
184	1
185	1
186	1
187	1
188	1
189	1
190	1
191	1
192	1
193	1
194	1
195	1
196	1
197	1
198	1
199	1
200	1
201	1
202	1
203	1
204	1
205	1
206	1
207	1
208	1
209	1
210	1
211	1
212	1
213	1
214	1
215	1
216	1
217	1
218	1
219	1
220	1
221	1
222	1
223	1
224	1
225	1
226	1
227	1
228	1
229	1
230	1
231	1
232	1
233	1
234	1
235	1
236	1
237	1
238	1
239	1
240	1
241	1
242	1
243	1
244	1
245	1
246	1
247	1
248	1
249	1
250	1
251	1
252	1
253	1
254	1
255	1
256	1
257	1
258	1
259	1
260	1
261	1
262	1
263	1
264	1
265	1
266	1
267	1
268	1
269	1
270	1
271	1
272	1
273	1
274	1
275	1
DEPOT_SECTION
1
-1
EOF
